(set-logic QF_S)
(declare-fun var0 () String)
(declare-fun var1 () String)
(declare-fun var2 () String)
(declare-fun var3 () String)
(declare-fun var4 () String)
(declare-fun var5 () String)
(declare-fun var6 () String)
(declare-fun var7 () String)
(declare-fun var8 () String)
(declare-fun var9 () String)
(declare-fun var10 () String)
(declare-fun var11 () String)
(declare-fun var12 () String)
(declare-fun var13 () String)
(declare-fun var14 () String)
(declare-fun var15 () String)
(declare-fun var16 () String)
(declare-fun var17 () String)
(declare-fun var18 () String)
(declare-fun var19 () String)
(declare-fun var20 () String)
(declare-fun var21 () String)
(declare-fun var22 () String)
(declare-fun var23 () String)
(declare-fun var24 () String)
(declare-fun var25 () String)
(declare-fun var26 () String)
(declare-fun var27 () String)
(declare-fun var28 () String)
(declare-fun var29 () String)
(declare-fun var30 () String)
(declare-fun var31 () String)
(declare-fun var32 () String)
(declare-fun var33 () String)
(declare-fun var34 () String)
(declare-fun var35 () String)
(declare-fun var36 () String)
(declare-fun var37 () String)
(declare-fun var38 () String)
(declare-fun var39 () String)
(declare-fun var40 () String)
(declare-fun var41 () String)
(declare-fun var42 () String)
(declare-fun var43 () String)
(declare-fun var44 () String)
(declare-fun var45 () String)
(declare-fun var46 () String)
(declare-fun var47 () String)
(declare-fun var48 () String)
(declare-fun var49 () String)
(declare-fun var50 () String)
(declare-fun var51 () String)
(declare-fun var52 () String)
(declare-fun var53 () String)
(declare-fun var54 () String)
(declare-fun var55 () String)
(declare-fun var56 () String)
(declare-fun var57 () String)
(declare-fun var58 () String)
(declare-fun var59 () String)
(declare-fun var60 () String)
(assert (= var0 (Concat var1 var2)))
(assert (= var2 (Concat var3 var4)))
(assert (= var4 (Concat var5 var6)))
(assert (= var6 (Concat var7 var8)))
(assert (= var8 (Concat var9 var10)))
(assert (= var10 (Concat var11 var12)))
(assert (= var12 (Concat var13 var14)))
(assert (= var14 (Concat var15 var16)))
(assert (= var16 (Concat var17 var18)))
(assert (= var18 (Concat var19 var20)))
(assert (= var20 (Concat var21 var22)))
(assert (= var22 (Concat var23 var24)))
(assert (= var24 (Concat var25 var26)))
(assert (= var26 (Concat var27 var28)))
(assert (= var28 (Concat var29 var30)))
(assert (= var30 (Concat var31 var32)))
(assert (= var32 (Concat var33 var34)))
(assert (= var34 (Concat var35 var36)))
(assert (= var36 (Concat var37 var38)))
(assert (= var38 (Concat var39 var40)))
(assert (= var40 (Concat var41 var42)))
(assert (= var42 (Concat var43 var44)))
(assert (= var44 (Concat var45 var46)))
(assert (= var46 (Concat var47 var48)))
(assert (= var48 (Concat var49 var50)))
(assert (= var50 (Concat var51 var52)))
(assert (= var52 (Concat var53 var54)))
(assert (= var54 (Concat var55 var56)))
(assert (= var56 (Concat var57 var58)))
(assert (= var58 (Concat var59 var60)))
(assert (= var0 "solution"))
(assert (= "." (CharAt var8 944)))
(assert (= "#" (CharAt var31 770)))
(assert (= "g" (CharAt var45 980)))
(assert (= "J" (CharAt var54 435)))
(assert (= "4" (CharAt var19 145)))
(assert (= "4" (CharAt var6 619)))
(assert (= "b" (CharAt var54 833)))
(assert (= "K" (CharAt var24 643)))
(assert (= "t" (CharAt var50 351)))
(assert (= "k" (CharAt var35 144)))
(assert (= "%" (CharAt var24 579)))
(assert (= "9" (CharAt var9 912)))
(assert (= "." (CharAt var44 788)))
(assert (= "<" (CharAt var30 927)))
(assert (= "N" (CharAt var5 449)))
(assert (= "y" (CharAt var35 320)))
(assert (= "p" (CharAt var50 761)))
(assert (= "d" (CharAt var9 756)))
(assert (= "m" (CharAt var42 876)))
(assert (= "U" (CharAt var16 830)))
(assert (= "_" (CharAt var43 235)))
(assert (= "f" (CharAt var43 566)))
(assert (= "I" (CharAt var59 253)))
(assert (= "8" (CharAt var15 227)))
(assert (= "K" (CharAt var23 787)))
(assert (= "c" (CharAt var26 113)))
(assert (= "`" (CharAt var17 32)))
(assert (= "f" (CharAt var46 666)))
(assert (= "#" (CharAt var17 167)))
(assert (= "+" (CharAt var26 11)))
(assert (= "8" (CharAt var2 903)))
(assert (= "1" (CharAt var23 667)))
(assert (= "}" (CharAt var27 215)))
(assert (= "8" (CharAt var6 562)))
(assert (= "x" (CharAt var35 58)))
(assert (= "w" (CharAt var55 611)))
(assert (= "W" (CharAt var9 113)))
(assert (= "T" (CharAt var6 16)))
(assert (= "7" (CharAt var55 445)))
(assert (= "}" (CharAt var31 137)))
(assert (= "T" (CharAt var45 141)))
(assert (= "\\" (CharAt var54 331)))
(assert (= "\"" (CharAt var58 114)))
(assert (= "U" (CharAt var45 392)))
(assert (= "c" (CharAt var35 60)))
(assert (= "-" (CharAt var33 434)))
(assert (= "S" (CharAt var11 100)))
(assert (= "/" (CharAt var33 785)))
(assert (= "l" (CharAt var56 860)))
(assert (= "q" (CharAt var37 683)))
(assert (= "<" (CharAt var17 955)))
(assert (= "P" (CharAt var47 335)))
(assert (= "t" (CharAt var43 684)))
(assert (= "D" (CharAt var6 878)))
(assert (= "9" (CharAt var28 445)))
(assert (= "N" (CharAt var32 917)))
(assert (= "|" (CharAt var26 334)))
(assert (= "a" (CharAt var34 816)))
(assert (= "c" (CharAt var49 537)))
(assert (= "_" (CharAt var27 447)))
(assert (= "j" (CharAt var1 427)))
(assert (= "<" (CharAt var20 157)))
(assert (= "J" (CharAt var25 314)))
(assert (= "M" (CharAt var48 808)))
(assert (= "b" (CharAt var27 673)))
(assert (= "%" (CharAt var35 544)))
(assert (= "G" (CharAt var57 515)))
(assert (= "I" (CharAt var44 450)))
(assert (= "+" (CharAt var6 909)))
(assert (= "j" (CharAt var6 87)))
(assert (= "F" (CharAt var22 351)))
(assert (= "5" (CharAt var5 130)))
(assert (= "r" (CharAt var20 105)))
(assert (= "!" (CharAt var17 283)))
(assert (= "6" (CharAt var46 946)))
(assert (= "!" (CharAt var38 456)))
(assert (= "}" (CharAt var8 227)))
(assert (= "8" (CharAt var11 617)))
(assert (= "5" (CharAt var24 173)))
(assert (= "5" (CharAt var30 437)))
(assert (= ";" (CharAt var30 179)))
(assert (= "B" (CharAt var51 920)))
(assert (= "g" (CharAt var5 644)))
(assert (= "J" (CharAt var26 36)))
(assert (= "O" (CharAt var40 740)))
(assert (= "Q" (CharAt var10 532)))
(assert (= "b" (CharAt var16 599)))
(assert (= "N" (CharAt var29 351)))
(assert (= "*" (CharAt var15 323)))
(assert (= "r" (CharAt var14 255)))
(assert (= "l" (CharAt var59 808)))
(assert (= "\\" (CharAt var16 522)))
(assert (= "o" (CharAt var39 921)))
(assert (= "p" (CharAt var32 693)))
(assert (= "+" (CharAt var23 483)))
(assert (= "B" (CharAt var53 58)))
(assert (= "t" (CharAt var42 432)))
(assert (= "5" (CharAt var26 750)))
(assert (= "\"" (CharAt var2 200)))
(assert (= "3" (CharAt var28 967)))
(assert (= "e" (CharAt var32 761)))
(assert (= "e" (CharAt var28 307)))
(assert (= "F" (CharAt var39 25)))
(assert (= ">" (CharAt var16 16)))
(assert (= "g" (CharAt var24 126)))
(assert (= "0" (CharAt var41 553)))
(assert (= "\\" (CharAt var16 289)))
(assert (= "c" (CharAt var45 781)))
(assert (= "l" (CharAt var55 531)))
(assert (= "h" (CharAt var4 930)))
(assert (= "^" (CharAt var24 963)))
(assert (= "K" (CharAt var27 11)))
(assert (= "H" (CharAt var42 77)))
(assert (= "R" (CharAt var11 167)))
(assert (= "[" (CharAt var4 897)))
(assert (= "8" (CharAt var1 491)))
(assert (= "Q" (CharAt var53 579)))
(assert (= ";" (CharAt var49 782)))
(assert (= "C" (CharAt var12 149)))
(assert (= "3" (CharAt var51 436)))
(assert (= "3" (CharAt var57 332)))
(assert (= "s" (CharAt var52 51)))
(assert (= "x" (CharAt var19 582)))
(assert (= ":" (CharAt var30 577)))
(assert (= "N" (CharAt var52 839)))
(assert (= "O" (CharAt var39 268)))
(assert (= "i" (CharAt var51 785)))
(assert (= "P" (CharAt var37 146)))
(assert (= "O" (CharAt var43 289)))
(assert (= "P" (CharAt var58 337)))
(assert (= "I" (CharAt var31 616)))
(assert (= "8" (CharAt var49 357)))
(assert (= "Y" (CharAt var14 11)))
(assert (= "N" (CharAt var9 793)))
(assert (= "6" (CharAt var6 241)))
(assert (= "F" (CharAt var1 277)))
(assert (= "K" (CharAt var29 839)))
(assert (= "A" (CharAt var28 310)))
(assert (= "^" (CharAt var28 667)))
(assert (= "l" (CharAt var24 23)))
(assert (= "j" (CharAt var40 513)))
(assert (= "e" (CharAt var18 421)))
(assert (= "8" (CharAt var52 803)))
(assert (= "Q" (CharAt var32 317)))
(assert (= "x" (CharAt var33 223)))
(assert (= "p" (CharAt var15 985)))
(assert (= "4" (CharAt var39 384)))
(assert (= "V" (CharAt var0 384)))
(assert (= "Q" (CharAt var47 193)))
(assert (= "e" (CharAt var17 20)))
(assert (= "\\" (CharAt var8 260)))
(assert (= "{" (CharAt var27 506)))
(assert (= "L" (CharAt var32 309)))
(assert (= "*" (CharAt var5 223)))
(assert (= "H" (CharAt var17 158)))
(assert (= "T" (CharAt var7 387)))
(assert (= "8" (CharAt var43 533)))
(assert (= "n" (CharAt var60 950)))
(assert (= "y" (CharAt var37 415)))
(assert (= "r" (CharAt var4 132)))
(assert (= "f" (CharAt var12 720)))
(assert (= "q" (CharAt var59 312)))
(assert (= ";" (CharAt var36 826)))
(assert (= ";" (CharAt var36 895)))
(assert (= "C" (CharAt var7 910)))
(assert (= "/" (CharAt var38 44)))
(assert (= "J" (CharAt var16 613)))
(assert (= "e" (CharAt var40 420)))
(assert (= "b" (CharAt var21 977)))
(assert (= "e" (CharAt var28 502)))
(assert (= "I" (CharAt var33 935)))
(assert (= "E" (CharAt var51 858)))
(assert (= "&" (CharAt var18 66)))
(assert (= "m" (CharAt var48 261)))
(assert (= "+" (CharAt var18 851)))
(assert (= "M" (CharAt var40 451)))
(assert (= "P" (CharAt var21 118)))
(assert (= "|" (CharAt var58 347)))
(assert (= ">" (CharAt var48 254)))
(assert (= "q" (CharAt var9 486)))
(assert (= "T" (CharAt var54 686)))
(assert (= "r" (CharAt var4 314)))
(assert (= "|" (CharAt var56 699)))
(assert (= "|" (CharAt var57 680)))
(assert (= "Q" (CharAt var25 772)))
(assert (= "+" (CharAt var6 600)))
(assert (= "+" (CharAt var7 491)))
(assert (= "I" (CharAt var25 471)))
(assert (= "<" (CharAt var18 634)))
(assert (= "L" (CharAt var22 875)))
(assert (= "/" (CharAt var16 467)))
(assert (= "z" (CharAt var8 180)))
(assert (= "G" (CharAt var40 417)))
(assert (= "5" (CharAt var13 641)))
(assert (= "\"" (CharAt var47 390)))
(assert (= "R" (CharAt var48 238)))
(assert (= "O" (CharAt var31 736)))
(assert (= "D" (CharAt var22 813)))
(assert (= "#" (CharAt var59 834)))
(assert (= "`" (CharAt var13 359)))
(assert (= "u" (CharAt var40 844)))
(assert (= "2" (CharAt var29 201)))
(assert (= "-" (CharAt var10 844)))
(assert (= "O" (CharAt var1 577)))
(assert (= "y" (CharAt var14 805)))
(assert (= "h" (CharAt var55 338)))
(assert (= "m" (CharAt var4 779)))
(assert (= "&" (CharAt var47 236)))
(assert (= "d" (CharAt var46 977)))
(assert (= "/" (CharAt var13 908)))
(assert (= "K" (CharAt var49 841)))
(assert (= "y" (CharAt var49 430)))
(assert (= "S" (CharAt var9 151)))
(assert (= "}" (CharAt var51 460)))
(assert (= "-" (CharAt var14 45)))
(assert (= "T" (CharAt var20 78)))
(assert (= "b" (CharAt var47 622)))
(assert (= "3" (CharAt var51 317)))
(assert (= "*" (CharAt var23 314)))
(assert (= "*" (CharAt var57 254)))
(assert (= "S" (CharAt var55 628)))
(assert (= "|" (CharAt var7 477)))
(assert (= "<" (CharAt var49 661)))
(assert (= "{" (CharAt var30 690)))
(assert (= "0" (CharAt var54 814)))
(assert (= "m" (CharAt var14 374)))
(assert (= "K" (CharAt var33 456)))
(assert (= "-" (CharAt var34 99)))
(assert (= "m" (CharAt var17 342)))
(assert (= "!" (CharAt var24 964)))
(assert (= "9" (CharAt var19 819)))
(assert (= "\\" (CharAt var28 134)))
(assert (= "&" (CharAt var5 456)))
(assert (= "K" (CharAt var0 711)))
(assert (= "y" (CharAt var23 808)))
(assert (= "a" (CharAt var53 262)))
(assert (= "!" (CharAt var19 177)))
(assert (= "2" (CharAt var50 759)))
(assert (= "M" (CharAt var26 598)))
(assert (= "Y" (CharAt var17 721)))
(assert (= "j" (CharAt var54 20)))
(assert (= "!" (CharAt var8 850)))
(assert (= "0" (CharAt var22 117)))
(assert (= "2" (CharAt var5 704)))
(assert (= "R" (CharAt var26 228)))
(assert (= "\"" (CharAt var34 876)))
(assert (= "V" (CharAt var38 538)))
(assert (= "Q" (CharAt var30 378)))
(assert (= "8" (CharAt var40 684)))
(assert (= "9" (CharAt var11 906)))
(assert (= "R" (CharAt var38 46)))
(assert (= "@" (CharAt var26 577)))
(assert (= "i" (CharAt var35 861)))
(assert (= "s" (CharAt var42 910)))
(assert (= "(" (CharAt var50 982)))
(assert (= "^" (CharAt var48 372)))
(assert (= ";" (CharAt var34 132)))
(assert (= "B" (CharAt var44 628)))
(assert (= "+" (CharAt var6 536)))
(assert (= "7" (CharAt var18 280)))
(assert (= "Y" (CharAt var44 32)))
(assert (= "6" (CharAt var4 827)))
(assert (= "#" (CharAt var11 344)))
(assert (= "@" (CharAt var28 633)))
(assert (= "f" (CharAt var51 284)))
(assert (= "w" (CharAt var42 38)))
(assert (= "^" (CharAt var57 401)))
(assert (= ";" (CharAt var13 273)))
(assert (= "X" (CharAt var24 52)))
(assert (= "f" (CharAt var12 767)))
(assert (= "o" (CharAt var25 942)))
(assert (= "x" (CharAt var29 418)))
(assert (= "9" (CharAt var39 808)))
(assert (= ":" (CharAt var39 235)))
(assert (= "V" (CharAt var52 40)))
(assert (= ";" (CharAt var51 420)))
(assert (= "m" (CharAt var55 437)))
(assert (= "}" (CharAt var47 252)))
(assert (= "u" (CharAt var10 398)))
(assert (= "(" (CharAt var5 119)))
(assert (= "u" (CharAt var26 868)))
(assert (= "~" (CharAt var25 540)))
(assert (= "g" (CharAt var57 21)))
(assert (= "Y" (CharAt var60 180)))
(assert (= "v" (CharAt var57 592)))
(assert (= "g" (CharAt var15 585)))
(assert (= "p" (CharAt var6 344)))
(assert (= "V" (CharAt var30 300)))
(assert (= "Q" (CharAt var0 519)))
(assert (= "Y" (CharAt var13 182)))
(assert (= "q" (CharAt var23 622)))
(assert (= "D" (CharAt var7 934)))
(assert (= "I" (CharAt var22 543)))
(assert (= "e" (CharAt var0 976)))
(assert (= "v" (CharAt var43 231)))
(assert (= "k" (CharAt var49 43)))
(assert (= "H" (CharAt var58 853)))
(assert (= "3" (CharAt var14 346)))
(assert (= "8" (CharAt var20 484)))
(assert (= "C" (CharAt var23 185)))
(assert (= "l" (CharAt var48 979)))
(assert (= "L" (CharAt var38 387)))
(assert (= "%" (CharAt var11 316)))
(assert (= "W" (CharAt var51 160)))
(assert (= "W" (CharAt var44 58)))
(assert (= "*" (CharAt var53 123)))
(assert (= "D" (CharAt var8 43)))
(assert (= "{" (CharAt var6 555)))
(assert (= "J" (CharAt var60 49)))
(assert (= "`" (CharAt var7 947)))
(assert (= "2" (CharAt var35 851)))
(assert (= "8" (CharAt var58 810)))
(assert (= "o" (CharAt var36 466)))
(assert (= ";" (CharAt var25 681)))
(assert (= ")" (CharAt var42 283)))
(assert (= "C" (CharAt var2 165)))
(assert (= "3" (CharAt var26 248)))
(assert (= "*" (CharAt var28 132)))
(assert (= "?" (CharAt var58 636)))
(assert (= "#" (CharAt var60 91)))
(assert (= "U" (CharAt var45 358)))
(assert (= "a" (CharAt var10 962)))
(assert (= "u" (CharAt var26 129)))
(assert (= ")" (CharAt var1 91)))
(assert (= "~" (CharAt var29 96)))
(assert (= "W" (CharAt var59 113)))
(assert (= "^" (CharAt var29 131)))
(assert (= "7" (CharAt var45 405)))
(assert (= "t" (CharAt var27 381)))
(assert (= "\"" (CharAt var30 734)))
(assert (= "|" (CharAt var4 218)))
(assert (= "s" (CharAt var1 506)))
(assert (= "l" (CharAt var43 216)))
(assert (= "w" (CharAt var23 561)))
(assert (= "H" (CharAt var2 829)))
(assert (= "%" (CharAt var52 92)))
(assert (= "," (CharAt var0 99)))
(assert (= "A" (CharAt var55 927)))
(assert (= "U" (CharAt var60 90)))
(assert (= "D" (CharAt var58 248)))
(assert (= "8" (CharAt var34 656)))
(assert (= "p" (CharAt var48 685)))
(assert (= "o" (CharAt var47 635)))
(assert (= "6" (CharAt var31 714)))
(assert (= "I" (CharAt var52 330)))
(assert (= "V" (CharAt var49 86)))
(assert (= "(" (CharAt var56 536)))
(assert (= "P" (CharAt var27 695)))
(assert (= ">" (CharAt var15 329)))
(assert (= "G" (CharAt var19 737)))
(assert (= "-" (CharAt var51 702)))
(assert (= "q" (CharAt var32 529)))
(assert (= "?" (CharAt var45 602)))
(assert (= "7" (CharAt var58 774)))
(assert (= "0" (CharAt var15 603)))
(assert (= "T" (CharAt var1 859)))
(assert (= "=" (CharAt var18 608)))
(assert (= "Z" (CharAt var8 980)))
(assert (= "L" (CharAt var23 889)))
(assert (= "Q" (CharAt var7 789)))
(assert (= "T" (CharAt var42 384)))
(assert (= "." (CharAt var17 153)))
(assert (= "'" (CharAt var43 750)))
(assert (= "Z" (CharAt var27 960)))
(assert (= "(" (CharAt var27 74)))
(assert (= "e" (CharAt var27 620)))
(assert (= "m" (CharAt var32 336)))
(assert (= "g" (CharAt var22 215)))
(assert (= "x" (CharAt var10 24)))
(assert (= "k" (CharAt var44 940)))
(assert (= "u" (CharAt var56 590)))
(assert (= "+" (CharAt var44 129)))
(assert (= "." (CharAt var35 444)))
(assert (= "I" (CharAt var15 872)))
(assert (= "'" (CharAt var23 773)))
(assert (= "?" (CharAt var1 850)))
(assert (= "G" (CharAt var10 641)))
(assert (= "V" (CharAt var38 545)))
(assert (= "3" (CharAt var45 820)))
(assert (= "`" (CharAt var11 793)))
(assert (= "}" (CharAt var25 458)))
(assert (= "I" (CharAt var0 553)))
(assert (= "P" (CharAt var45 581)))
(assert (= "!" (CharAt var32 668)))
(assert (= "6" (CharAt var53 461)))
(assert (= "Z" (CharAt var10 433)))
(assert (= "F" (CharAt var31 235)))
(assert (= "!" (CharAt var20 627)))
(assert (= "_" (CharAt var42 960)))
(assert (= "P" (CharAt var46 90)))
(assert (= "O" (CharAt var5 289)))
(assert (= "B" (CharAt var44 459)))
(assert (= "N" (CharAt var13 259)))
(assert (= "r" (CharAt var15 202)))
(assert (= "Y" (CharAt var28 928)))
(assert (= "6" (CharAt var36 783)))
(assert (= "." (CharAt var59 621)))
(assert (= "1" (CharAt var27 137)))
(assert (= "|" (CharAt var59 14)))
(assert (= "p" (CharAt var15 623)))
(assert (= "$" (CharAt var27 8)))
(assert (= "'" (CharAt var59 906)))
(assert (= "I" (CharAt var0 923)))
(assert (= "I" (CharAt var18 908)))
(assert (= "C" (CharAt var6 157)))
(assert (= "7" (CharAt var47 787)))
(assert (= ">" (CharAt var12 291)))
(assert (= "h" (CharAt var38 898)))
(assert (= "M" (CharAt var39 648)))
(assert (= "f" (CharAt var6 743)))
(assert (= ")" (CharAt var45 211)))
(assert (= "J" (CharAt var5 492)))
(assert (= "n" (CharAt var34 218)))
(assert (= "." (CharAt var3 390)))
(assert (= "H" (CharAt var52 548)))
(assert (= "?" (CharAt var23 85)))
(assert (= "T" (CharAt var55 286)))
(assert (= "/" (CharAt var1 339)))
(assert (= "T" (CharAt var9 757)))
(assert (= "Y" (CharAt var33 281)))
(assert (= "%" (CharAt var17 748)))
(assert (= "D" (CharAt var49 134)))
(assert (= "1" (CharAt var56 315)))
(assert (= "M" (CharAt var12 86)))
(assert (= "M" (CharAt var52 612)))
(assert (= "U" (CharAt var33 98)))
(assert (= "P" (CharAt var36 106)))
(assert (= "O" (CharAt var7 618)))
(assert (= "_" (CharAt var27 192)))
(assert (= "M" (CharAt var57 62)))
(assert (= "$" (CharAt var51 885)))
(assert (= "_" (CharAt var11 471)))
(assert (= "=" (CharAt var5 44)))
(assert (= "(" (CharAt var7 316)))
(assert (= "<" (CharAt var43 236)))
(assert (= "S" (CharAt var12 355)))
(assert (= "Q" (CharAt var41 416)))
(assert (= ")" (CharAt var47 968)))
(assert (= "f" (CharAt var47 812)))
(assert (= "1" (CharAt var8 237)))
(assert (= "!" (CharAt var38 713)))
(assert (= "k" (CharAt var28 515)))
(assert (= "n" (CharAt var52 369)))
(assert (= "(" (CharAt var2 710)))
(assert (= "Y" (CharAt var5 799)))
(assert (= "v" (CharAt var55 846)))
(assert (= ":" (CharAt var51 589)))
(assert (= ";" (CharAt var5 534)))
(assert (= "#" (CharAt var8 296)))
(assert (= "+" (CharAt var20 498)))
(assert (= "^" (CharAt var59 690)))
(assert (= ")" (CharAt var7 829)))
(assert (= "/" (CharAt var20 46)))
(assert (= "_" (CharAt var39 334)))
(assert (= "<" (CharAt var54 751)))
(assert (= "{" (CharAt var15 843)))
(assert (= "t" (CharAt var39 201)))
(assert (= "v" (CharAt var19 886)))
(assert (= "H" (CharAt var36 209)))
(assert (= "K" (CharAt var26 717)))
(assert (= "!" (CharAt var15 236)))
(assert (= "m" (CharAt var42 702)))
(assert (= "5" (CharAt var57 892)))
(assert (= "Q" (CharAt var29 597)))
(assert (= "t" (CharAt var7 539)))
(assert (= "L" (CharAt var46 710)))
(assert (= "R" (CharAt var24 977)))
(assert (= "3" (CharAt var53 28)))
(assert (= "m" (CharAt var35 100)))
(assert (= "!" (CharAt var49 137)))
(assert (= "3" (CharAt var13 221)))
(assert (= "O" (CharAt var11 408)))
(assert (= "?" (CharAt var45 598)))
(assert (= "I" (CharAt var10 750)))
(assert (= "s" (CharAt var49 336)))
(assert (= "I" (CharAt var44 661)))
(assert (= "2" (CharAt var16 810)))
(assert (= "8" (CharAt var59 493)))
(assert (= "[" (CharAt var17 142)))
(assert (= "q" (CharAt var23 93)))
(assert (= "," (CharAt var1 493)))
(assert (= "d" (CharAt var27 373)))
(assert (= ";" (CharAt var4 421)))
(assert (= "," (CharAt var38 330)))
(assert (= "V" (CharAt var26 153)))
(assert (= "|" (CharAt var20 630)))
(assert (= "Y" (CharAt var51 476)))
(assert (= "=" (CharAt var14 540)))
(assert (= "F" (CharAt var56 765)))
(assert (= "<" (CharAt var6 613)))
(assert (= "<" (CharAt var43 201)))
(assert (= "r" (CharAt var1 58)))
(assert (= "Z" (CharAt var9 992)))
(assert (= "E" (CharAt var8 461)))
(assert (= "x" (CharAt var6 91)))
(assert (= "G" (CharAt var41 586)))
(assert (= "O" (CharAt var22 825)))
(assert (= "G" (CharAt var39 404)))
(assert (= "b" (CharAt var55 126)))
(assert (= "N" (CharAt var35 491)))
(assert (= "s" (CharAt var35 589)))
(assert (= "=" (CharAt var15 116)))
(assert (= "$" (CharAt var15 77)))
(assert (= "1" (CharAt var51 494)))
(assert (= "K" (CharAt var36 399)))
(assert (= "G" (CharAt var37 584)))
(assert (= "Y" (CharAt var7 278)))
(assert (= "?" (CharAt var54 694)))
(assert (= "R" (CharAt var11 159)))
(assert (= "a" (CharAt var7 623)))
(assert (= "p" (CharAt var2 769)))
(assert (= "A" (CharAt var23 431)))
(assert (= "Y" (CharAt var5 753)))
(assert (= "\"" (CharAt var44 78)))
(assert (= "!" (CharAt var11 874)))
(assert (= "\"" (CharAt var32 0)))
(assert (= "v" (CharAt var33 800)))
(assert (= "-" (CharAt var55 949)))
(assert (= "V" (CharAt var44 356)))
(assert (= "'" (CharAt var12 242)))
(assert (= ">" (CharAt var52 445)))
(assert (= "+" (CharAt var9 58)))
(assert (= "u" (CharAt var23 6)))
(assert (= "I" (CharAt var5 770)))
(assert (= "n" (CharAt var28 666)))
(assert (= "w" (CharAt var17 230)))
(assert (= "o" (CharAt var21 344)))
(assert (= "$" (CharAt var22 828)))
(assert (= "2" (CharAt var23 227)))
(assert (= ">" (CharAt var48 623)))
(assert (= "x" (CharAt var13 83)))
(assert (= "(" (CharAt var32 371)))
(assert (= "I" (CharAt var46 923)))
(assert (= "W" (CharAt var28 160)))
(assert (= "D" (CharAt var1 984)))
(assert (= "n" (CharAt var24 730)))
(assert (= "|" (CharAt var53 336)))
(assert (= "9" (CharAt var33 861)))
(assert (= "<" (CharAt var23 340)))
(assert (= "%" (CharAt var33 66)))
(assert (= "x" (CharAt var16 897)))
(assert (= "7" (CharAt var49 88)))
(assert (= "S" (CharAt var6 460)))
(assert (= "x" (CharAt var53 680)))
(assert (= "$" (CharAt var31 718)))
(assert (= "T" (CharAt var47 41)))
(assert (= "A" (CharAt var53 878)))
(assert (= ";" (CharAt var28 194)))
(assert (= "*" (CharAt var33 21)))
(assert (= "1" (CharAt var47 428)))
(assert (= "T" (CharAt var29 901)))
(assert (= "6" (CharAt var40 95)))
(assert (= "<" (CharAt var28 332)))
(assert (= "]" (CharAt var25 427)))
(assert (= "g" (CharAt var27 360)))
(assert (= "&" (CharAt var24 383)))
(assert (= "c" (CharAt var50 868)))
(assert (= "g" (CharAt var60 76)))
(assert (= "6" (CharAt var36 331)))
(assert (= "Y" (CharAt var42 994)))
(assert (= ")" (CharAt var23 775)))
(assert (= "r" (CharAt var10 298)))
(assert (= "k" (CharAt var2 31)))
(assert (= "2" (CharAt var53 31)))
(assert (= "F" (CharAt var46 310)))
(assert (= "p" (CharAt var41 613)))
(assert (= "p" (CharAt var35 642)))
(assert (= "7" (CharAt var25 779)))
(assert (= "\"" (CharAt var19 354)))
(assert (= "N" (CharAt var32 588)))
(assert (= "2" (CharAt var2 241)))
(assert (= "L" (CharAt var3 526)))
(assert (= "9" (CharAt var6 187)))
(assert (= "!" (CharAt var6 584)))
(assert (= "'" (CharAt var5 345)))
(assert (= "o" (CharAt var39 577)))
(assert (= "I" (CharAt var49 659)))
(assert (= "u" (CharAt var9 437)))
(assert (= ">" (CharAt var3 875)))
(assert (= "\\" (CharAt var38 692)))
(assert (= "D" (CharAt var48 921)))
(assert (= "1" (CharAt var37 937)))
(assert (= "f" (CharAt var41 12)))
(assert (= "N" (CharAt var23 101)))
(assert (= "(" (CharAt var0 848)))
(assert (= "m" (CharAt var56 413)))
(assert (= "f" (CharAt var7 591)))
(assert (= "/" (CharAt var49 360)))
(assert (= "R" (CharAt var11 797)))
(assert (= "," (CharAt var19 612)))
(assert (= "e" (CharAt var42 663)))
(assert (= "y" (CharAt var34 662)))
(assert (= "1" (CharAt var43 269)))
(assert (= "n" (CharAt var38 287)))
(assert (= "h" (CharAt var46 59)))
(assert (= "L" (CharAt var58 457)))
(assert (= "E" (CharAt var45 592)))
(assert (= "," (CharAt var46 745)))
(assert (= "'" (CharAt var37 388)))
(assert (= "A" (CharAt var51 601)))
(assert (= "s" (CharAt var40 958)))
(assert (= "u" (CharAt var31 821)))
(assert (= "#" (CharAt var33 29)))
(assert (= "W" (CharAt var30 374)))
(assert (= "#" (CharAt var4 875)))
(assert (= "k" (CharAt var49 239)))
(assert (= "U" (CharAt var55 44)))
(assert (= "b" (CharAt var51 279)))
(assert (= "h" (CharAt var34 971)))
(assert (= "s" (CharAt var31 749)))
(assert (= "E" (CharAt var29 458)))
(assert (= "B" (CharAt var40 47)))
(assert (= "i" (CharAt var10 17)))
(assert (= "P" (CharAt var56 673)))
(assert (= "Q" (CharAt var0 850)))
(assert (= "b" (CharAt var50 908)))
(assert (= "P" (CharAt var33 348)))
(assert (= "$" (CharAt var46 517)))
(assert (= "m" (CharAt var19 519)))
(assert (= "k" (CharAt var49 640)))
(assert (= "f" (CharAt var29 745)))
(assert (= "(" (CharAt var50 911)))
(assert (= "m" (CharAt var7 138)))
(assert (= "N" (CharAt var28 435)))
(assert (= "N" (CharAt var37 55)))
(assert (= "V" (CharAt var19 749)))
(assert (= "=" (CharAt var36 429)))
(assert (= "^" (CharAt var54 796)))
(assert (= "s" (CharAt var52 78)))
(assert (= "N" (CharAt var46 439)))
(assert (= "W" (CharAt var55 519)))
(assert (= "6" (CharAt var21 242)))
(assert (= "7" (CharAt var26 677)))
(assert (= "+" (CharAt var52 737)))
(assert (= "+" (CharAt var49 493)))
(assert (= "I" (CharAt var9 694)))
(assert (= "\"" (CharAt var45 151)))
(assert (= "j" (CharAt var15 618)))
(assert (= "Y" (CharAt var14 817)))
(assert (= "g" (CharAt var38 549)))
(assert (= "(" (CharAt var42 136)))
(assert (= "[" (CharAt var23 510)))
(assert (= "0" (CharAt var7 797)))
(assert (= ";" (CharAt var49 411)))
(assert (= "(" (CharAt var32 109)))
(assert (= "W" (CharAt var3 874)))
(assert (= "6" (CharAt var22 342)))
(assert (= "\\" (CharAt var32 116)))
(assert (= "^" (CharAt var7 455)))
(assert (= ":" (CharAt var10 266)))
(assert (= "!" (CharAt var18 189)))
(assert (= "{" (CharAt var10 223)))
(assert (= "D" (CharAt var48 586)))
(assert (= "$" (CharAt var32 332)))
(assert (= "#" (CharAt var52 208)))
(assert (= "m" (CharAt var29 428)))
(assert (= "," (CharAt var58 585)))
(assert (= "n" (CharAt var28 942)))
(assert (= "7" (CharAt var16 556)))
(assert (= "3" (CharAt var31 877)))
(assert (= "2" (CharAt var43 690)))
(assert (= "I" (CharAt var11 656)))
(assert (= "*" (CharAt var49 663)))
(assert (= "Y" (CharAt var57 417)))
(assert (= "M" (CharAt var32 647)))
(assert (= "e" (CharAt var0 811)))
(assert (= "{" (CharAt var11 633)))
(assert (= "N" (CharAt var10 720)))
(assert (= "E" (CharAt var21 841)))
(assert (= "z" (CharAt var38 577)))
(assert (= "%" (CharAt var58 525)))
(assert (= "n" (CharAt var17 799)))
(assert (= "2" (CharAt var49 603)))
(assert (= ")" (CharAt var8 820)))
(assert (= "C" (CharAt var30 49)))
(assert (= "_" (CharAt var14 470)))
(assert (= "t" (CharAt var55 267)))
(assert (= "q" (CharAt var24 740)))
(assert (= "r" (CharAt var45 298)))
(assert (= "i" (CharAt var14 806)))
(assert (= "S" (CharAt var34 359)))
(check-sat)